c read Graph
c width = 155
c time = 73 ms
c width = 17
c time = 145 ms
c width = 16
c time = 181 ms
c width = 15
c time = 395 ms
c width = 14
c time = 824 ms
c width = 13
c time = 2031 ms
c width = 13
c time = 5011 ms
s td 149 14 168
b 1 1 2 15
b 2 2 3 15 16
b 3 12 13 27 28
b 4 3 15 16 29
b 5 12 27 28 42
b 6 127 141 142 156
b 7 140 153 154 167
b 8 127 142 156 157
b 9 140 153 166 167
b 10 3 4 5 18
b 11 3 5 17 18 30 43
b 12 3 17 29 30 43
b 13 3 16 17 29 30
b 14 5 17 18 30 32 43 45
b 15 5 18 30 32 43 45 58
b 16 30 43 44 45 58
b 17 5 18 32 43 45 58 71
b 18 5 18 20 32 33 45 58 71
b 19 5 18 19 20 33
b 20 5 20 32 33 45 47 58 60 71
b 21 32 45 46 47 60
b 22 5 20 33 45 47 58 60 71 73
b 23 5 20 33 47 58 60 71 73 86
b 24 58 71 72 73 86
b 25 5 20 33 35 47 48 60 71 73 86
b 26 20 33 34 35 48
b 27 5 20 35 47 48 60 63 71 73 75 76 86
b 28 47 48 60 62 63 75 76
b 29 47 60 61 62 75
b 30 5 20 35 48 50 60 63 71 73 75 76 86
b 31 35 48 49 50 63
b 32 5 20 35 50 60 63 71 73 75 76 86 89 101 102
b 33 60 73 75 86 88 89 101 102
b 34 73 86 87 88 101
b 35 60 73 74 75 88
b 36 5 20 35 50 63 71 76 86 89 101 102 115 127 128
b 37 5 20 35 50 63 76 89 102 115 127 128 130 145 158
b 38 5 20 35 50 63 76 89 102 115 117 128 130 145 158
b 39 5 20 35 50 63 76 89 102 117 130 131 145 158
b 40 5 20 35 50 63 76 89 102 117 131 132 145 158
b 41 5 20 35 50 63 76 89 102 117 132 145 147 158 162
b 42 132 145 146 147 158 162
b 43 145 146 147 158 159 162
b 44 146 147 158 159 160 162
b 45 147 160 161 162
b 46 5 20 35 50 63 76 89 102 104 117 132 147 162
b 47 89 102 103 104 117
b 48 5 20 35 50 63 76 89 91 104 117 132 147 162
b 49 76 89 90 91 104
b 50 102 115 116 117 130
b 51 115 127 128 130 143 145 158
b 52 115 128 129 130 143
b 53 127 128 143 157 158
b 54 127 128 142 143 157
b 55 130 143 144 145 158
b 56 71 86 101 114 115 127 128
b 57 71 86 99 101 114 127
b 58 99 113 114 127
b 59 86 99 100 101 114
b 60 71 85 86 99
b 61 45 58 59 60 73
b 62 43 57 58 71
b 63 17 30 31 32 45
b 64 52 65 66 67 80
b 65 63 76 77 78 91
b 66 50 63 64 65 78
b 67 104 117 118 119 132
b 68 65 78 79 80 93
b 69 80 93 94 95 108
b 70 78 91 92 93 106
b 71 91 104 105 106 119
b 72 93 106 107 108 121
b 73 106 119 120 121 134
b 74 119 132 133 134 147
b 75 121 134 135 136 149
b 76 134 147 148 149 162
b 77 84 97 110 123 136 149 162 164
b 78 5 20 35 50 63 76 91 104 117 119 132 147 162
b 79 5 20 35 50 63 76 78 91 104 119 132 147 162
b 80 5 20 35 50 63 78 91 104 106 119 132 147 162
b 81 5 20 35 50 63 78 91 106 119 132 134 147 162
b 82 5 20 35 50 63 65 78 91 106 119 134 147 162
b 83 5 20 35 50 65 78 91 93 106 119 134 147 162
b 84 5 20 35 50 65 78 93 106 119 121 134 147 162
b 85 5 20 35 50 65 78 93 106 121 134 147 149 162
b 86 5 20 35 50 65 78 93 106 121 134 136 149 162
b 87 5 20 35 50 65 78 93 106 108 121 136 149 162
b 88 5 20 35 50 65 78 93 108 121 123 136 149 162
b 89 5 20 35 50 65 78 80 93 108 123 136 149 162
b 90 5 20 35 50 65 80 93 95 108 123 136 149 162
b 91 5 20 35 50 65 80 95 108 110 123 136 149 162
b 92 5 20 35 50 65 80 84 95 97 110 123 136 149 162
b 93 5 20 35 50 65 80 82 84 95 97 110
b 94 5 20 35 50 65 67 80 82 84 95 97
b 95 5 9 20 24 35 37 50 52 67 82 84 97
b 96 5 20 35 37 50 52 65 67 82 84 97
b 97 5 20 35 50 52 65 67 80 82 84 97
b 98 52 65 67 80 82 84 97
b 99 37 50 51 52 65
b 100 67 80 81 82 95
b 101 108 121 122 123 136
b 102 82 95 96 97 110
b 103 84 97 110 112 123 136 149 164
b 104 84 97 98 112
b 105 97 110 112 123 136 149 151 164
b 106 97 110 112 123 125 136 151 164
b 107 97 110 111 112 125
b 108 110 112 123 125 136 138 151 164
b 109 123 136 137 138 151
b 110 110 123 124 125 138
b 111 112 125 138 151 164 166
b 112 151 164 165 166
b 113 112 125 138 151 152 166
b 114 112 125 138 140 152 166
b 115 125 138 139 140 152 166
b 116 139 140 152 153 166
b 117 112 125 126 140
b 118 136 149 150 151 164
b 119 149 162 163 164
b 120 95 108 109 110 123
b 121 5 9 20 22 24 35 37 50
b 122 22 35 36 37 50
b 123 9 22 23 24 37
b 124 5 7 9 20 22 35
b 125 7 20 21 22 35
b 126 7 8 9 22
b 127 5 6 7 20
b 128 9 24 37 52 67 69 82 84 97
b 129 69 82 83 84 97
b 130 9 24 37 52 54 67 69 82 84
b 131 54 67 68 69 82
b 132 9 24 37 39 52 54 67 69 84
b 133 39 52 53 54 67
b 134 24 37 38 39 52
b 135 9 24 39 54 56 69 84
b 136 9 11 24 39 54 56 69
b 137 9 10 11 24
b 138 11 24 39 41 54 56 69
b 139 11 24 26 39 41 54 56
b 140 26 39 40 41 54
b 141 11 26 41 42 56
b 142 11 12 26 41 42
b 143 12 26 27 41 42
b 144 11 24 25 26 39
b 145 41 54 55 56 69
b 146 56 69 70 84
b 147 154 167 168
b 148 141 155 156
b 149 13 14 28
1 2
2 4
3 149
3 5
4 13
5 143
6 148
6 8
7 147
7 9
8 54
9 116
10 11
11 14
11 12
12 13
14 63
14 15
15 17
15 16
17 62
17 18
18 20
18 19
20 22
20 21
22 61
22 23
23 25
23 24
25 27
25 26
27 30
27 28
28 29
30 32
30 31
32 36
32 33
33 34
33 35
36 56
36 37
37 51
37 38
38 50
38 39
39 40
40 41
41 46
41 42
42 43
43 44
44 45
46 48
46 47
48 78
48 49
51 52
51 53
51 55
53 54
56 57
57 58
57 59
57 60
64 98
65 79
66 82
67 78
68 89
69 90
70 83
71 80
72 87
73 84
74 81
75 86
76 85
77 119
77 103
77 92
78 79
79 80
80 81
81 82
82 83
83 84
84 85
85 86
86 87
87 88
88 101
88 89
89 90
90 91
91 120
91 92
92 93
93 102
93 94
94 100
94 97
95 121
95 128
95 96
96 99
96 97
97 98
103 104
103 105
105 118
105 106
106 107
106 108
108 110
108 111
108 109
111 112
111 113
113 114
114 117
114 115
115 116
121 123
121 124
121 122
124 127
124 126
124 125
128 129
128 130
130 131
130 132
132 134
132 133
132 135
135 146
135 136
136 137
136 138
138 145
138 139
139 141
139 144
139 140
141 142
142 143
